(set-info :origin "NTS benchmark converted to SMT-LIB2 using Eldarica (http://lara.epfl.ch/w/eldarica)")
(set-logic HORN)
(declare-fun p (Int Int Int Int Int Int Int Int Int Int Int Int Int Int Int Int Int) Bool)
(assert(forall((A Int)(B Int)(C Int)(D Int)(E Int)(F Int)(G Int)(H Int)(I Int)(J Int)(K Int)(L Int)(M Int)(N Int)(O Int)(P Int)(Q Int)(R Int)(S Int)(T Int)(U Int)(V Int)(W Int)(X Int)(Y Int)(Z Int)(A1 Int)(B1 Int)(C1 Int)(D1 Int)(E1 Int)(F1 Int))(=>(or (and (and (= A 5) (and (and (and (and (and (and (and (and (and (and (and (and (and (and (and (= R B) (= S C)) (= T D)) (= U E)) (= V F)) (= W G)) (= X H)) (= Y I)) (= Z J)) (= A1 K)) (= B1 L)) (= C1 M)) (= S N)) (= D1 O)) (= E1 P)) (= F1 Q))) (and (and (and (and (not (not (<= S 0))) (not (not (= (* (- 1) F1) 0)))) (not (not (= (* (- 1) E1) 0)))) (not (not (= (* (- 1) D1) 0)))) (not (not (= (* (- 1) C1) (- 1)))))) (and (and (= A 5) (and (and (and (and (and (and (and (and (and (and (and (and (and (and (and (= R B) (= S C)) (= T D)) (= U E)) (= V F)) (= W G)) (= X H)) (= Y I)) (= Z J)) (= A1 K)) (= B1 L)) (= C1 M)) (= S N)) (= D1 O)) (= E1 P)) (= F1 Q))) (and (and (and (and (not (not (>= (+ (+ S (- 1)) 0) 0))) (not (not (= (* (- 1) F1) 0)))) (not (not (= (* (- 1) E1) 0)))) (not (not (= (* (- 1) D1) 0)))) (not (not (= (* (- 1) C1) 0)))))) (p A B C D E F G H I J K L M N O P Q))))
(assert(forall((A Int)(B Int)(C Int)(D Int)(E Int)(F Int)(G Int)(H Int)(I Int)(J Int)(K Int)(L Int)(M Int)(N Int)(O Int)(P Int)(Q Int)(R Int)(S Int)(T Int)(U Int)(V Int)(W Int)(X Int)(Y Int)(Z Int)(A1 Int)(B1 Int)(C1 Int)(D1 Int)(E1 Int)(F1 Int)(G1 Int)(H1 Int)(I1 Int)(J1 Int)(K1 Int)(L1 Int)(M1 Int)(N1 Int)(O1 Int)(P1 Int)(Q1 Int)(R1 Int)(S1 Int)(T1 Int)(U1 Int)(V1 Int)(W1 Int)(X1 Int)(Y1 Int)(Z1 Int)(A2 Int))(=>(and (or (or (or (or (or (or (and (and (and (and (= A 1) (= R 2)) (and (and (and (and (and (and (and (and (and (and (and (and (and (and (and (= S B) (= T C)) (= U D)) (= V E)) (= W F)) (= X G)) (= Y H)) (= Z I)) (= A1 J)) (= B1 K)) (= C1 L)) (= D1 M)) (= E1 N)) (= F1 O)) (= F1 P)) (= G1 Q))) (and (and (and (and (and (and (and (and (and (and (and (and (and (and (and (= S H1) (= T I1)) (= U J1)) (= V K1)) (= W L1)) (= X M1)) (= Y N1)) (= Z O1)) (= P1 Q1)) (= R1 S1)) (= C1 T1)) (= D1 U1)) (= E1 V1)) (= F1 W1)) (= F1 X1)) (= Y1 Z1))) (not (not (= (* (- 1) G1) (- 1))))) (and (and (and (and (= A 2) (= R 3)) (and (and (and (and (and (and (and (and (and (and (and (and (and (and (and (= S B) (= T C)) (= U D)) (= V E)) (= W F)) (= X G)) (= Y H)) (= Z I)) (= A1 J)) (= B1 K)) (= C1 L)) (= D1 M)) (= E1 N)) (= F1 O)) (= G1 P)) (= P1 Q))) (and (and (and (and (and (and (and (and (and (and (and (and (and (and (and (= S H1) (= T I1)) (= U J1)) (= V K1)) (= W L1)) (= X M1)) (= Y N1)) (= Z O1)) (= R1 Q1)) (= Y1 S1)) (= C1 T1)) (= D1 U1)) (= E1 V1)) (= F1 W1)) (= A2 X1)) (= P1 Z1))) (and (not (not (<= C1 0))) (not (not (= (* (- 1) G1) (- 1))))))) (and (and (and (and (= A 2) (= R 3)) (and (and (and (and (and (and (and (and (and (and (and (and (and (and (and (= S B) (= T C)) (= U D)) (= V E)) (= W F)) (= X G)) (= Y H)) (= Z I)) (= A1 J)) (= B1 K)) (= C1 L)) (= D1 M)) (= E1 N)) (= F1 O)) (= G1 P)) (= P1 Q))) (and (and (and (and (and (and (and (and (and (and (and (and (and (and (and (= S H1) (= T I1)) (= U J1)) (= V K1)) (= W L1)) (= X M1)) (= Y N1)) (= Z O1)) (= R1 Q1)) (= Y1 S1)) (= C1 T1)) (= D1 U1)) (= E1 V1)) (= F1 W1)) (= A2 X1)) (= P1 Z1))) (and (not (not (>= (+ (+ C1 (- 1)) 0) 0))) (not (not (= (* (- 1) G1) 0)))))) (and (and (and (and (= A 3) (= R 4)) (and (and (and (and (and (and (and (and (and (and (and (and (and (and (and (= S B) (= T C)) (= U D)) (= V E)) (= W F)) (= X G)) (= Y H)) (= Z I)) (= A1 J)) (= B1 K)) (= C1 L)) (= D1 M)) (= E1 N)) (= F1 O)) (= G1 P)) (= P1 Q))) (and (and (and (and (and (and (and (and (and (and (and (and (and (and (and (= S H1) (= T I1)) (= U J1)) (= V K1)) (= W L1)) (= X M1)) (= Y N1)) (= Z O1)) (= R1 Q1)) (= Y1 S1)) (= C1 T1)) (= D1 U1)) (= E1 V1)) (= A2 W1)) (= G1 X1)) (= P1 Z1))) (and (not (not (>= (+ (+ E1 (- 1)) 0) 0))) (not (not (= (* (- 1) F1) 0)))))) (and (and (and (and (= A 3) (= R 4)) (and (and (and (and (and (and (and (and (and (and (and (and (and (and (and (= S B) (= T C)) (= U D)) (= V E)) (= W F)) (= X G)) (= Y H)) (= Z I)) (= A1 J)) (= B1 K)) (= C1 L)) (= D1 M)) (= E1 N)) (= F1 O)) (= G1 P)) (= P1 Q))) (and (and (and (and (and (and (and (and (and (and (and (and (and (and (and (= S H1) (= T I1)) (= U J1)) (= V K1)) (= W L1)) (= X M1)) (= Y N1)) (= Z O1)) (= R1 Q1)) (= Y1 S1)) (= C1 T1)) (= D1 U1)) (= E1 V1)) (= A2 W1)) (= G1 X1)) (= P1 Z1))) (and (not (not (<= E1 0))) (not (not (= (* (- 1) F1) (- 1))))))) (and (and (and (and (= A 4) (= R 5)) (and (and (and (and (and (and (and (and (and (and (and (and (and (and (and (= S B) (= T C)) (= U D)) (= V E)) (= W F)) (= X G)) (= Y H)) (= Z I)) (= A1 J)) (= B1 K)) (= C1 L)) (= D1 M)) (= E1 N)) (= F1 O)) (= G1 P)) (= P1 Q))) (and (and (and (and (and (and (and (and (and (and (and (and (and (and (and (= S H1) (= T I1)) (= U J1)) (= V K1)) (= W L1)) (= X M1)) (= Y N1)) (= Z O1)) (= R1 Q1)) (= Y1 S1)) (= C1 T1)) (= D1 U1)) (= E1 V1)) (= F1 W1)) (= G1 X1)) (= P1 Z1))) (and (not (not (<= C1 0))) (not (= (* (- 1) (+ D1 (- 1))) 0))))) (and (and (and (and (= A 4) (= R 5)) (and (and (and (and (and (and (and (and (and (and (and (and (and (and (and (= S B) (= T C)) (= U D)) (= V E)) (= W F)) (= X G)) (= Y H)) (= Z I)) (= A1 J)) (= B1 K)) (= C1 L)) (= D1 M)) (= E1 N)) (= F1 O)) (= G1 P)) (= P1 Q))) (and (and (and (and (and (and (and (and (and (and (and (and (and (and (and (= S H1) (= T I1)) (= U J1)) (= V K1)) (= W L1)) (= X M1)) (= Y N1)) (= Z O1)) (= Y1 Q1)) (= A2 S1)) (= C1 T1)) (= R1 U1)) (= E1 V1)) (= F1 W1)) (= G1 X1)) (= P1 Z1))) (and (and (not (not (>= (+ (+ C1 (- 1)) 0) 0))) (not (not (= (* (- 1) D1) (- 1))))) (not (not (= (* (- 1) R1) (- 1))))))) (p R H1 I1 J1 K1 L1 M1 N1 O1 Q1 S1 T1 U1 V1 W1 X1 Z1)) (p A B C D E F G H I J K L M N O P Q))))
(assert(not (exists((A Int)(B Int)(C Int)(D Int)(E Int)(F Int)(G Int)(H Int)(I Int)(J Int)(K Int)(L Int)(M Int)(N Int)(O Int)(P Int)(Q Int)(R Int)(S Int)(T Int)(U Int)(V Int)(W Int)(X Int)(Y Int)(Z Int)(A1 Int)(B1 Int)(C1 Int)(D1 Int)(E1 Int)(F1 Int)(G1 Int))(and (and (and (= A 1) (and (and (and (and (and (and (and (and (and (and (and (and (and (and (and (= B C) (= D E)) (= F G)) (= H I)) (= J K)) (= L M)) (= N O)) (= P Q)) (= R S)) (= T U)) (= V W)) (= X Y)) (= Z A1)) (= B1 C1)) (= D1 E1)) (= F1 G1))) (not (= (* (- 1) F1) 0))) (p A C E G I K M O Q S U W Y A1 C1 E1 G1)))))
(check-sat)
